(set-logic QF_LRA)
(declare-fun X0 () Real )
(declare-fun Y0 () Real )
(declare-fun X1 () Real )
(declare-fun Y1 () Real )
(declare-fun X2 () Real )
(declare-fun Y2 () Real )
(declare-fun X3 () Real )
(declare-fun Y3 () Real )
(declare-fun X4 () Real )
(declare-fun Y4 () Real )
(declare-fun X5 () Real )
(declare-fun Y5 () Real )
(declare-fun X6 () Real )
(declare-fun Y6 () Real )
(declare-fun X7 () Real )
(declare-fun Y7 () Real )
(declare-fun X8 () Real )
(declare-fun Y8 () Real )
(declare-fun Z () Real )
(declare-fun k () Real )
(assert (let
(( $goal (>= Z k) ))
(let
((
$phi ( and 
( or ( <= ( + X0 63 ) X1 )  ( <= ( + X1 69 ) X0 )  ( <= ( + Y0 85 ) Y1 )  ( <= ( + Y1 26 ) Y0 )  )
( or ( <= ( + X0 63 ) X2 )  ( <= ( + X2 100 ) X0 )  ( <= ( + Y0 85 ) Y2 )  ( <= ( + Y2 23 ) Y0 )  )
( or ( <= ( + X0 63 ) X3 )  ( <= ( + X3 34 ) X0 )  ( <= ( + Y0 85 ) Y3 )  ( <= ( + Y3 25 ) Y0 )  )
( or ( <= ( + X0 63 ) X4 )  ( <= ( + X4 89 ) X0 )  ( <= ( + Y0 85 ) Y4 )  ( <= ( + Y4 84 ) Y0 )  )
( or ( <= ( + X0 63 ) X5 )  ( <= ( + X5 87 ) X0 )  ( <= ( + Y0 85 ) Y5 )  ( <= ( + Y5 61 ) Y0 )  )
( or ( <= ( + X0 63 ) X6 )  ( <= ( + X6 57 ) X0 )  ( <= ( + Y0 85 ) Y6 )  ( <= ( + Y6 12 ) Y0 )  )
( or ( <= ( + X0 63 ) X7 )  ( <= ( + X7 51 ) X0 )  ( <= ( + Y0 85 ) Y7 )  ( <= ( + Y7 69 ) Y0 )  )
( or ( <= ( + X0 63 ) X8 )  ( <= ( + X8 1 ) X0 )  ( <= ( + Y0 85 ) Y8 )  ( <= ( + Y8 68 ) Y0 )  )
( or ( <= ( + X1 69 ) X2 )  ( <= ( + X2 100 ) X1 )  ( <= ( + Y1 26 ) Y2 )  ( <= ( + Y2 23 ) Y1 )  )
( or ( <= ( + X1 69 ) X3 )  ( <= ( + X3 34 ) X1 )  ( <= ( + Y1 26 ) Y3 )  ( <= ( + Y3 25 ) Y1 )  )
( or ( <= ( + X1 69 ) X4 )  ( <= ( + X4 89 ) X1 )  ( <= ( + Y1 26 ) Y4 )  ( <= ( + Y4 84 ) Y1 )  )
( or ( <= ( + X1 69 ) X5 )  ( <= ( + X5 87 ) X1 )  ( <= ( + Y1 26 ) Y5 )  ( <= ( + Y5 61 ) Y1 )  )
( or ( <= ( + X1 69 ) X6 )  ( <= ( + X6 57 ) X1 )  ( <= ( + Y1 26 ) Y6 )  ( <= ( + Y6 12 ) Y1 )  )
( or ( <= ( + X1 69 ) X7 )  ( <= ( + X7 51 ) X1 )  ( <= ( + Y1 26 ) Y7 )  ( <= ( + Y7 69 ) Y1 )  )
( or ( <= ( + X1 69 ) X8 )  ( <= ( + X8 1 ) X1 )  ( <= ( + Y1 26 ) Y8 )  ( <= ( + Y8 68 ) Y1 )  )
( or ( <= ( + X2 100 ) X3 )  ( <= ( + X3 34 ) X2 )  ( <= ( + Y2 23 ) Y3 )  ( <= ( + Y3 25 ) Y2 )  )
( or ( <= ( + X2 100 ) X4 )  ( <= ( + X4 89 ) X2 )  ( <= ( + Y2 23 ) Y4 )  ( <= ( + Y4 84 ) Y2 )  )
( or ( <= ( + X2 100 ) X5 )  ( <= ( + X5 87 ) X2 )  ( <= ( + Y2 23 ) Y5 )  ( <= ( + Y5 61 ) Y2 )  )
( or ( <= ( + X2 100 ) X6 )  ( <= ( + X6 57 ) X2 )  ( <= ( + Y2 23 ) Y6 )  ( <= ( + Y6 12 ) Y2 )  )
( or ( <= ( + X2 100 ) X7 )  ( <= ( + X7 51 ) X2 )  ( <= ( + Y2 23 ) Y7 )  ( <= ( + Y7 69 ) Y2 )  )
( or ( <= ( + X2 100 ) X8 )  ( <= ( + X8 1 ) X2 )  ( <= ( + Y2 23 ) Y8 )  ( <= ( + Y8 68 ) Y2 )  )
( or ( <= ( + X3 34 ) X4 )  ( <= ( + X4 89 ) X3 )  ( <= ( + Y3 25 ) Y4 )  ( <= ( + Y4 84 ) Y3 )  )
( or ( <= ( + X3 34 ) X5 )  ( <= ( + X5 87 ) X3 )  ( <= ( + Y3 25 ) Y5 )  ( <= ( + Y5 61 ) Y3 )  )
( or ( <= ( + X3 34 ) X6 )  ( <= ( + X6 57 ) X3 )  ( <= ( + Y3 25 ) Y6 )  ( <= ( + Y6 12 ) Y3 )  )
( or ( <= ( + X3 34 ) X7 )  ( <= ( + X7 51 ) X3 )  ( <= ( + Y3 25 ) Y7 )  ( <= ( + Y7 69 ) Y3 )  )
( or ( <= ( + X3 34 ) X8 )  ( <= ( + X8 1 ) X3 )  ( <= ( + Y3 25 ) Y8 )  ( <= ( + Y8 68 ) Y3 )  )
( or ( <= ( + X4 89 ) X5 )  ( <= ( + X5 87 ) X4 )  ( <= ( + Y4 84 ) Y5 )  ( <= ( + Y5 61 ) Y4 )  )
( or ( <= ( + X4 89 ) X6 )  ( <= ( + X6 57 ) X4 )  ( <= ( + Y4 84 ) Y6 )  ( <= ( + Y6 12 ) Y4 )  )
( or ( <= ( + X4 89 ) X7 )  ( <= ( + X7 51 ) X4 )  ( <= ( + Y4 84 ) Y7 )  ( <= ( + Y7 69 ) Y4 )  )
( or ( <= ( + X4 89 ) X8 )  ( <= ( + X8 1 ) X4 )  ( <= ( + Y4 84 ) Y8 )  ( <= ( + Y8 68 ) Y4 )  )
( or ( <= ( + X5 87 ) X6 )  ( <= ( + X6 57 ) X5 )  ( <= ( + Y5 61 ) Y6 )  ( <= ( + Y6 12 ) Y5 )  )
( or ( <= ( + X5 87 ) X7 )  ( <= ( + X7 51 ) X5 )  ( <= ( + Y5 61 ) Y7 )  ( <= ( + Y7 69 ) Y5 )  )
( or ( <= ( + X5 87 ) X8 )  ( <= ( + X8 1 ) X5 )  ( <= ( + Y5 61 ) Y8 )  ( <= ( + Y8 68 ) Y5 )  )
( or ( <= ( + X6 57 ) X7 )  ( <= ( + X7 51 ) X6 )  ( <= ( + Y6 12 ) Y7 )  ( <= ( + Y7 69 ) Y6 )  )
( or ( <= ( + X6 57 ) X8 )  ( <= ( + X8 1 ) X6 )  ( <= ( + Y6 12 ) Y8 )  ( <= ( + Y8 68 ) Y6 )  )
( or ( <= ( + X7 51 ) X8 )  ( <= ( + X8 1 ) X7 )  ( <= ( + Y7 69 ) Y8 )  ( <= ( + Y8 68 ) Y7 )  )
( >= X0 0)
( <= ( + X0 63) Z)
( >= Y0 0)
( <= ( + Y0 85 ) 100)
( >= X1 0)
( <= ( + X1 69) Z)
( >= Y1 0)
( <= ( + Y1 26 ) 100)
( >= X2 0)
( <= ( + X2 100) Z)
( >= Y2 0)
( <= ( + Y2 23 ) 100)
( >= X3 0)
( <= ( + X3 34) Z)
( >= Y3 0)
( <= ( + Y3 25 ) 100)
( >= X4 0)
( <= ( + X4 89) Z)
( >= Y4 0)
( <= ( + Y4 84 ) 100)
( >= X5 0)
( <= ( + X5 87) Z)
( >= Y5 0)
( <= ( + Y5 61 ) 100)
( >= X6 0)
( <= ( + X6 57) Z)
( >= Y6 0)
( <= ( + Y6 12 ) 100)
( >= X7 0)
( <= ( + X7 51) Z)
( >= Y7 0)
( <= ( + Y7 69 ) 100)
( >= X8 0)
( <= ( + X8 1) Z)
( >= Y8 0)
( <= ( + Y8 68 ) 100)
) )
)(=> $phi $goal))))